c colouring generated by benchmark framework
p edge 138 493
v 1 3
v 2 5
v 3 6
v 4 1
v 5 8
v 6 3
v 7 0
v 8 7
v 9 3
v 10 1
v 11 7
v 12 4
v 13 4
v 14 5
v 15 7
v 16 0
v 17 0
v 18 6
v 19 2
v 20 3
v 21 0
v 22 4
v 23 4
v 24 7
v 25 1
v 26 9
v 27 5
v 28 0
v 29 5
v 30 1
v 31 7
v 32 6
v 33 1
v 34 4
v 35 2
v 36 10
v 37 9
v 38 5
v 39 7
v 40 0
v 41 7
v 42 2
v 43 10
v 44 9
v 45 2
v 46 0
v 47 8
v 48 3
v 49 5
v 50 3
v 51 2
v 52 6
v 53 0
v 54 3
v 55 1
v 56 4
v 57 0
v 58 7
v 59 0
v 60 0
v 61 1
v 62 4
v 63 10
v 64 5
v 65 10
v 66 0
v 67 4
v 68 1
v 69 6
v 70 7
v 71 0
v 72 2
v 73 8
v 74 8
v 75 1
v 76 1
v 77 1
v 78 7
v 79 5
v 80 2
v 81 7
v 82 4
v 83 7
v 84 1
v 85 3
v 86 9
v 87 5
v 88 7
v 89 0
v 90 9
v 91 9
v 92 9
v 93 9
v 94 7
v 95 0
v 96 7
v 97 5
v 98 8
v 99 5
v 100 8
v 101 3
v 102 4
v 103 7
v 104 10
v 105 10
v 106 1
v 107 8
v 108 7
v 109 5
v 110 5
v 111 10
v 112 0
v 113 10
v 114 4
v 115 4
v 116 3
v 117 4
v 118 7
v 119 4
v 120 7
v 121 0
v 122 4
v 123 3
v 124 1
v 125 6
v 126 5
v 127 0
v 128 10
v 129 0
v 130 7
v 131 6
v 132 2
v 133 0
v 134 7
v 135 2
v 136 1
v 137 6
v 138 4
